Minimize
  14 x11 + 5 x12 + 15 x21 + 6 x22 + 2.1 y11_1_1 + 2.8 y11_1_2 + 3.5 y11_2_1
   + 3.5 y11_2_2 + 1.4 y11_3_1 + 0.7 y11_3_2 + 2.4 y12_1_1 + 3.2 y12_1_2
   + 4 y12_2_1 + 4 y12_2_2 + 1.6 y12_3_1 + 0.8 y12_3_2 + 4.5 y13_1_1
   + 6 y13_1_2 + 7.5 y13_2_1 + 7.5 y13_2_2 + 3 y13_3_1 + 1.5 y13_3_2
   + 3.3 y21_1_1 + 4.4 y21_1_2 + 5.5 y21_2_1 + 5.5 y21_2_2 + 2.2 y21_3_1
   + 1.1 y21_3_2 + 2.1 y22_1_1 + 2.8 y22_1_2 + 3.5 y22_2_1 + 3.5 y22_2_2
   + 1.4 y22_3_1 + 0.7 y22_3_2 + 1.2 y23_1_1 + 1.6 y23_1_2 + 2 y23_2_1
   + 2 y23_2_2 + 0.8 y23_3_1 + 0.4 y23_3_2
Subject To
 c1: 40 x11 + 40 x21 >= 600
 c2: 40 x11 + 40 x21 >= 750
 c3: 40 x11 + 40 x21 >= 900
 c4: 40 x11 - 200 y11_1_1 - 240 y12_1_1 - 160 y13_1_1 >= -0
 c5: 40 x21 - 200 y21_1_1 - 240 y22_1_1 - 160 y23_1_1 >= -0
 c6: y11_1_1 + y21_1_1 = 1
 c7: y12_1_1 + y22_1_1 = 1
 c8: y13_1_1 + y23_1_1 = 1
 c9: 40 x11 - 250 y11_2_1 - 300 y12_2_1 - 200 y13_2_1 >= -0
 c10: 40 x21 - 250 y21_2_1 - 300 y22_2_1 - 200 y23_2_1 >= -0
 c11: y11_2_1 + y21_2_1 = 1
 c12: y12_2_1 + y22_2_1 = 1
 c13: y13_2_1 + y23_2_1 = 1
 c14: 40 x11 - 300 y11_3_1 - 360 y12_3_1 - 240 y13_3_1 >= -0
 c15: 40 x21 - 300 y21_3_1 - 360 y22_3_1 - 240 y23_3_1 >= -0
 c16: y11_3_1 + y21_3_1 = 1
 c17: y12_3_1 + y22_3_1 = 1
 c18: y13_3_1 + y23_3_1 = 1
 c19: 40 x11 + 40 x12 - 300 y11_1_2 - 270 y12_1_2 - 180 y13_1_2 >= -0
 c20: 40 x21 + 40 x22 - 300 y21_1_2 - 270 y22_1_2 - 180 y23_1_2 >= -0
 c21: y11_1_2 + y21_1_2 = 1
 c22: y12_1_2 + y22_1_2 = 1
 c23: y13_1_2 + y23_1_2 = 1
 c24: 40 x11 + 40 x12 - 280 y11_2_2 - 320 y12_2_2 - 240 y13_2_2 >= -0
 c25: 40 x21 + 40 x22 - 280 y21_2_2 - 320 y22_2_2 - 240 y23_2_2 >= -0
 c26: y11_2_2 + y21_2_2 = 1
 c27: y12_2_2 + y22_2_2 = 1
 c28: y13_2_2 + y23_2_2 = 1
 c29: 40 x11 + 40 x12 - 350 y11_3_2 - 400 y12_3_2 - 500 y13_3_2 >= -0
 c30: 40 x21 + 40 x22 - 350 y21_3_2 - 400 y22_3_2 - 500 y23_3_2 >= -0
 c31: y11_3_2 + y21_3_2 = 1
 c32: y12_3_2 + y22_3_2 = 1
 c33: y13_3_2 + y23_3_2 = 1
Bounds
 y11_1_1 <= 1
 y11_1_2 <= 1
 y11_2_1 <= 1
 y11_2_2 <= 1
 y11_3_1 <= 1
 y11_3_2 <= 1
 y12_1_1 <= 1
 y12_1_2 <= 1
 y12_2_1 <= 1
 y12_2_2 <= 1
 y12_3_1 <= 1
 y12_3_2 <= 1
 y13_1_1 <= 1
 y13_1_2 <= 1
 y13_2_1 <= 1
 y13_2_2 <= 1
 y13_3_1 <= 1
 y13_3_2 <= 1
 y21_1_1 <= 1
 y21_1_2 <= 1
 y21_2_1 <= 1
 y21_2_2 <= 1
 y21_3_1 <= 1
 y21_3_2 <= 1
 y22_1_1 <= 1
 y22_1_2 <= 1
 y22_2_1 <= 1
 y22_2_2 <= 1
 y22_3_1 <= 1
 y22_3_2 <= 1
 y23_1_1 <= 1
 y23_1_2 <= 1
 y23_2_1 <= 1
 y23_2_2 <= 1
 y23_3_1 <= 1
 y23_3_2 <= 1
Generals
 x11 x12 x21 x22
End
